outputs/case_121.model.txt
capital_adequacy_ratio = 100
supervision_measures_enforced = True
capital_significant_insufficient_measures_done = True
net_worth_ratio = 3/2
capital_severe_insufficient_measures_done = False
improvement_plan_submitted = False
net_worth = 50
improvement_plan_executed = False
violate_sales_and_underwriting_rules = False
capital_significant_insufficient_measures_executed = True
internal_handling_established = True
sales_and_underwriting_rules_executed = True
explanation_document_compliant = True
violate_148_3_2 = False
reported_to_authority_on_time = True
capital_insufficient_measures_executed = False
explanation_document_provided = True
capital_level = 3
supervision_measures_taken = True
violate_148_1_1_or_2 = False
internal_control_executed = True
internal_handling_executed = True
violate_148_1_2 = False
violate_148_2_2 = False
penalty = False
capital_severe_insufficient_measures_executed = False
public_explanation_provided = True
violate_148_2_1 = False
internal_control_established = True
violate_148_3_1 = False
explanation_document_truthful = True
report_content_truthful = True